Problem:    gioco_coi_numeri
Rows:       28
Columns:    27 (27 integer, 27 binary)
Non-zeros:  114
Status:     INTEGER OPTIMAL
Objective:  z = 999 (MAXimum)

   No.   Row name        Activity     Lower bound   Upper bound
------ ------------    ------------- ------------- -------------
     1 Totale                    999                        1000 
     2 Num_potenze[1]
                                   1             1             = 
     3 Num_potenze[2]
                                   1             1             = 
     4 Num_potenze[3]
                                   1             1             = 
     5 Num_potenze[4]
                                   1             1             = 
     6 Num_potenze[5]
                                   1             1             = 
     7 Num_potenze[6]
                                   1             1             = 
     8 Num_potenze[7]
                                   1             1             = 
     9 Num_potenze[8]
                                   1             1             = 
    10 Num_potenze[9]
                                   1             1             = 
    11 Formanumeri[1,1]
                                  -1                          -0 
    12 Formanumeri[1,2]
                                   0                          -0 
    13 Formanumeri[2,1]
                                  -1                          -0 
    14 Formanumeri[2,2]
                                   0                          -0 
    15 Formanumeri[3,1]
                                   0                          -0 
    16 Formanumeri[3,2]
                                   0                          -0 
    17 Formanumeri[4,1]
                                   0                          -0 
    18 Formanumeri[4,2]
                                   0                          -0 
    19 Formanumeri[5,1]
                                   0                          -0 
    20 Formanumeri[5,2]
                                   0                          -0 
    21 Formanumeri[6,1]
                                   0                          -0 
    22 Formanumeri[6,2]
                                   0                          -0 
    23 Formanumeri[7,1]
                                   0                          -0 
    24 Formanumeri[7,2]
                                   0                          -0 
    25 Formanumeri[8,1]
                                   0                          -0 
    26 Formanumeri[8,2]
                                   0                          -0 
    27 Unity                       1             1             = 
    28 z                         999                             

   No. Column name       Activity     Lower bound   Upper bound
------ ------------    ------------- ------------- -------------
     1 x[1,0]       *              1             0             1 
     2 x[1,1]       *              0             0             1 
     3 x[1,2]       *              0             0             1 
     4 x[2,0]       *              1             0             1 
     5 x[2,1]       *              0             0             1 
     6 x[2,2]       *              0             0             1 
     7 x[3,0]       *              1             0             1 
     8 x[3,1]       *              0             0             1 
     9 x[3,2]       *              0             0             1 
    10 x[4,0]       *              0             0             1 
    11 x[4,1]       *              0             0             1 
    12 x[4,2]       *              1             0             1 
    13 x[5,0]       *              0             0             1 
    14 x[5,1]       *              1             0             1 
    15 x[5,2]       *              0             0             1 
    16 x[6,0]       *              1             0             1 
    17 x[6,1]       *              0             0             1 
    18 x[6,2]       *              0             0             1 
    19 x[7,0]       *              0             0             1 
    20 x[7,1]       *              0             0             1 
    21 x[7,2]       *              1             0             1 
    22 x[8,0]       *              0             0             1 
    23 x[8,1]       *              1             0             1 
    24 x[8,2]       *              0             0             1 
    25 x[9,0]       *              1             0             1 
    26 x[9,1]       *              0             0             1 
    27 x[9,2]       *              0             0             1 

Integer feasibility conditions:

KKT.PE: max.abs.err = 0.00e+00 on row 0
        max.rel.err = 0.00e+00 on row 0
        High quality

KKT.PB: max.abs.err = 0.00e+00 on row 0
        max.rel.err = 0.00e+00 on row 0
        High quality

End of output
